c description: Random 3-CNF over 20 variables and 85 clauses
c generator: CNFgen (0.9.2)
c copyright: (C) 2012-2022 Massimo Lauria <massimo.lauria@uniroma1.it>
c url: https://massimolauria.net/cnfgen
c command line: cnfgen --output CNF_4.28/20_bit_85_538.cnf randkcnf 3 20 85
c
p cnf 20 85
-12 -16 -18 0
2 -6 7 0
-9 10 -19 0
-1 -7 -16 0
1 5 -13 0
-3 -16 -20 0
4 -6 7 0
4 6 -18 0
-6 -12 -13 0
8 11 15 0
-2 -7 -17 0
1 -11 -14 0
1 6 -19 0
11 13 14 0
-1 5 10 0
-6 9 11 0
-7 -12 -16 0
2 -15 16 0
-1 5 -12 0
-7 -13 -20 0
-3 5 -8 0
4 6 20 0
2 -4 11 0
-13 -15 18 0
13 -14 15 0
-1 8 -13 0
7 -9 -10 0
3 5 20 0
1 6 10 0
2 8 19 0
-4 -15 -18 0
1 6 16 0
-11 15 19 0
3 -13 -20 0
5 10 15 0
2 9 13 0
3 -5 -6 0
-1 8 16 0
10 16 19 0
6 -13 -18 0
-3 -5 -20 0
5 -15 16 0
11 -18 20 0
-2 17 -19 0
4 8 -16 0
6 10 -16 0
-5 -17 18 0
1 -10 -18 0
-6 -8 -11 0
-11 14 16 0
1 -4 11 0
2 10 11 0
-3 6 -15 0
-9 -15 17 0
-10 -11 -18 0
9 10 19 0
3 16 -18 0
-3 -14 16 0
-4 -14 -16 0
-6 -12 13 0
4 7 11 0
-3 -8 -17 0
9 -16 -20 0
-3 13 19 0
-2 -5 16 0
-6 10 17 0
-11 17 -20 0
-1 -12 20 0
17 -19 -20 0
4 9 -11 0
-3 8 17 0
-2 -12 13 0
9 -16 -18 0
-11 16 18 0
-1 7 15 0
4 -10 -20 0
9 -18 -20 0
-5 -7 -10 0
1 -5 11 0
2 -4 -15 0
3 18 19 0
-1 -2 -15 0
3 -9 14 0
3 -8 19 0
-12 19 -20 0
